c Random generated cnf formula, satisfiable: false
p cnf 10 50
3 -5 7 0
-8 5 10 0
-7 -5 -1 0
10 3 -5 0
8 5 -2 0
10 -3 6 0
2 -4 -8 0
5 -8 9 0
2 5 1 0
7 10 -5 0
-7 5 -1 0
-2 -7 6 0
-10 5 -1 0
7 -5 6 0
4 -8 7 0
5 -8 -10 0
8 5 4 0
-8 -2 1 0
3 7 10 0
9 7 4 0
9 3 4 0
-5 9 -6 0
9 2 7 0
-4 -1 7 0
7 4 9 0
-3 5 2 0
-3 -7 -8 0
9 -6 -3 0
-6 2 -9 0
5 -9 -2 0
-6 -8 -4 0
-7 8 9 0
2 1 -3 0
1 -10 6 0
3 2 -5 0
4 1 3 0
-7 -4 2 0
-4 10 3 0
-7 -10 5 0
7 -10 5 0
-9 10 8 0
7 -5 -2 0
7 -8 -2 0
-10 6 1 0
2 -7 -5 0
1 -10 8 0
10 -6 -5 0
-5 -4 -1 0
-2 5 4 0
3 -1 9 0
